WARNING: for repeatability, setting FPU to use double precision
============================[ Problem Statistics ]=============================
|                                                                             |
|  Number of symmetries:          59                                          |
|  Number of invertingSyms:        0                                          |
|  Number of variables:           930                                         |
|  Number of clauses:           13981                                         |
|  Parse time:                   0.00 s                                       |
|                                                                             |
============================[ Search Statistics ]==============================
| Conflicts |          ORIGINAL         |          LEARNT          | Progress |
|           |    Vars  Clauses Literals |    Limit  Clauses Lit/Cl |          |
===============================================================================
|       100 |     930    13981    28830 |     5126      101    330 |  0.000 % |
|       250 |     930    13981    28830 |     5639      294    247 |  0.000 % |
|       475 |     930    13981    28830 |     6202      639    212 |  0.000 % |
|       812 |     930    13981    28830 |     6823     1256    176 |  0.000 % |
|      1318 |     930    13981    28830 |     7505     1840    191 |  0.000 % |
|      2077 |     930    13981    28830 |     8256     2856    172 |  0.004 % |
|      3216 |     930    13981    28830 |     9081     4295    173 |  0.000 % |
|      4924 |     930    13981    28830 |     9989     7174    162 |  0.000 % |
|      7486 |     930    13981    28830 |    10988    10718    173 |  0.000 % |
|     11330 |     930    13981    28830 |    12087     7409    138 |  0.000 % |
|     17096 |     930    13981    28830 |    13296     9951    211 |  0.000 % |
|     25745 |     930    13981    28830 |    14626     9411    173 |  0.000 % |
|     38719 |     930    13981    28830 |    16088    12522    201 |  0.000 % |
|     58180 |     930    13981    28830 |    17697     8238    183 |  0.000 % |
|     87372 |     930    13981    28830 |    19467    12673    195 |  0.000 % |
|    131161 |     930    13981    28830 |    21414    11601    166 |  0.000 % |
|    196845 |     930    13981    28830 |    23555    14613    307 |  0.000 % |
|    295371 |     930    13981    28830 |    25911    12567    221 |  0.000 % |
|    443160 |     930    13981    28830 |    28502    18750    204 |  0.000 % |
|    664843 |     930    13981    28830 |    31352    17194    294 |  0.000 % |
|    997368 |     930    13981    28830 |    34487    25123    290 |  0.000 % |
|   1496156 |     930    13981    28830 |    37936    32736    197 |  0.000 % |
|   2244338 |     930    13981    28830 |    41730    20402    218 |  0.000 % |
|   3366612 |     930    13981    28830 |    45903    30829    221 |  0.000 % |
|   5050023 |     930    13981    28830 |    50493    21269    350 |  0.000 % |
|   7575139 |     930    13981    28830 |    55542    33630    199 |  0.000 % |
|  11362814 |     930    13981    28830 |    61096    54168    242 |  0.000 % |
|  17044326 |     930    13981    28830 |    67206    28951    271 |  0.000 % |
===============================================================================
restarts              : 32767
conflicts             : 23167401       (4576 /sec)
symconflicts          : 969074         (191 /sec)
decisions             : 46075735       (0.00 % random) (9100 /sec)
propagations          : 543750891      (107392 /sec)
sympropagations       : 7111912        (1405 /sec)
conflict literals     : 6567772903     (6.47 % deleted)
Memory used           : 450.00 MB
CPU time              : 5063.22 s

INDETERMINATE
